<?xml version="1.0" encoding="UTF-8"?><osil xmlns="os.optimizationservices.org"   xmlns:xsi="http://www.w3.org/2001/XMLSchema-instance" xsi:schemaLocation="os.optimizationservices.org http://www.optimizationservices.org/schemas/2.0/OSiL.xsd" ><instanceHeader><name>q_20_4_75_3</name></instanceHeader><instanceData><variables numberOfVariables="20"><var name="x1" ub="1"/><var name="x2" ub="1"/><var name="x3" ub="1"/><var name="x4" ub="1"/><var name="x5" ub="1"/><var name="x6" ub="1"/><var name="x7" ub="1"/><var name="x8" ub="1"/><var name="x9" ub="1"/><var name="x10" ub="1"/><var name="x11" ub="1"/><var name="x12" ub="1"/><var name="x13" ub="1"/><var name="x14" ub="1"/><var name="x15" ub="1"/><var name="x16" ub="1"/><var name="x17" ub="1"/><var name="x18" ub="1"/><var name="x19" ub="1"/><var name="x20" ub="1"/></variables><objectives numberOfObjectives="1"><obj maxOrMin="min" name="defObj_x21" numberOfObjCoef="20"><coef idx="0">-.4429</coef><coef idx="1">.4707</coef><coef idx="2">-.3139</coef><coef idx="3">-.9997</coef><coef idx="4">-.6852</coef><coef idx="5">-.4383</coef><coef idx="6">.8332</coef><coef idx="7">-.9454</coef><coef idx="8">-.7802</coef><coef idx="9">.1448</coef><coef idx="10">-.3755</coef><coef idx="11">.4462</coef><coef idx="12">.2352</coef><coef idx="13">.1629</coef><coef idx="14">.2847</coef><coef idx="15">.6619</coef><coef idx="16">-.872</coef><coef idx="17">.7458</coef><coef idx="18">.7365</coef><coef idx="19">.5659</coef></obj></objectives><constraints numberOfConstraints="4"><con name="e2" ub="64.844"/><con name="e3" ub="11.449"/><con name="e4" ub="60.574"/><con name="e5" ub="75.309"/></constraints><linearConstraintCoefficients numberOfValues="80"><start><el mult="5" incr="20">0</el></start><colIdx><el mult="20" incr="1">0</el><el mult="20" incr="1">0</el><el mult="20" incr="1">0</el><el mult="20" incr="1">0</el></colIdx><value><el>-.669</el><el>-.6671</el><el>-3.06e-2</el><el>.7802</el><el>-.9761</el><el>.5948</el><el>-.6119</el><el>.3109</el><el>.9424</el><el>-.6722</el><el>-.6334</el><el>.8146</el><el>-.5433</el><el>.504</el><el>-.2001</el><el>-.4751</el><el>-3.36e-2</el><el>8.78e-2</el><el>.2829</el><el>-8.3e-3</el><el>.512</el><el>-.844</el><el>.9969</el><el>-.5885</el><el>-.1144</el><el>-.6107</el><el>.7908</el><el>.182</el><el>.9472</el><el>.4685</el><el>.1261</el><el>-.2826</el><el>-.9628</el><el>-.1975</el><el>-.8846</el><el>-.3241</el><el>.2676</el><el>-.8234</el><el>-.403</el><el>.9641</el><el>-.1654</el><el>7.5e-3</el><el>-.103</el><el>.1481</el><el>-.4042</el><el>-.8684</el><el>.7861</el><el>.6305</el><el>-.7861</el><el>.3864</el><el>.1221</el><el>-.2269</el><el>.7585</el><el>.7047</el><el>-.9711</el><el>.7653</el><el>.3736</el><el>-.6228</el><el>.7512</el><el>.8001</el><el>.2757</el><el>-.9884</el><el>.5653</el><el>.184</el><el>-.2369</el><el>-.8693</el><el>-.8708</el><el>-.1068</el><el>.324</el><el>.2638</el><el>.6292</el><el>.1876</el><el>.6185</el><el>7.57e-2</el><el>-.6704</el><el>.9749</el><el>-.3579</el><el>.362</el><el>.282</el><el>-.3487</el></value></linearConstraintCoefficients><quadraticCoefficients  numberOfQuadraticTerms="550" ><qTerm  idx="-1"  idxOne="0"  idxTwo="0"  coef=".4575"/><qTerm  idx="-1"  idxOne="0"  idxTwo="1"  coef=".2925"/><qTerm  idx="-1"  idxOne="0"  idxTwo="4"  coef=".6509"/><qTerm  idx="-1"  idxOne="0"  idxTwo="5"  coef="-.5194"/><qTerm  idx="-1"  idxOne="0"  idxTwo="6"  coef="-.5375"/><qTerm  idx="-1"  idxOne="0"  idxTwo="8"  coef="-.8567"/><qTerm  idx="-1"  idxOne="0"  idxTwo="10"  coef="-.7567"/><qTerm  idx="-1"  idxOne="0"  idxTwo="11"  coef="5.59e-2"/><qTerm  idx="-1"  idxOne="0"  idxTwo="12"  coef="-.5979"/><qTerm  idx="-1"  idxOne="0"  idxTwo="13"  coef="-.5328"/><qTerm  idx="-1"  idxOne="0"  idxTwo="14"  coef=".4108"/><qTerm  idx="-1"  idxOne="0"  idxTwo="15"  coef="-.9746"/><qTerm  idx="-1"  idxOne="0"  idxTwo="17"  coef="-.8816"/><qTerm  idx="-1"  idxOne="0"  idxTwo="18"  coef="-.6054"/><qTerm  idx="-1"  idxOne="1"  idxTwo="1"  coef=".8048"/><qTerm  idx="-1"  idxOne="1"  idxTwo="2"  coef="-.4608"/><qTerm  idx="-1"  idxOne="1"  idxTwo="3"  coef="-.5202"/><qTerm  idx="-1"  idxOne="1"  idxTwo="4"  coef="-1.26e-2"/><qTerm  idx="-1"  idxOne="1"  idxTwo="5"  coef=".4756"/><qTerm  idx="-1"  idxOne="1"  idxTwo="6"  coef="-.1092"/><qTerm  idx="-1"  idxOne="1"  idxTwo="8"  coef=".3646"/><qTerm  idx="-1"  idxOne="1"  idxTwo="11"  coef="-.604"/><qTerm  idx="-1"  idxOne="1"  idxTwo="19"  coef=".8765"/><qTerm  idx="-1"  idxOne="2"  idxTwo="2"  coef=".5905"/><qTerm  idx="-1"  idxOne="2"  idxTwo="3"  coef="-.5705"/><qTerm  idx="-1"  idxOne="2"  idxTwo="6"  coef="-.5678"/><qTerm  idx="-1"  idxOne="2"  idxTwo="8"  coef="-.9959"/><qTerm  idx="-1"  idxOne="2"  idxTwo="9"  coef="-7.73e-2"/><qTerm  idx="-1"  idxOne="2"  idxTwo="10"  coef="-.4033"/><qTerm  idx="-1"  idxOne="2"  idxTwo="12"  coef=".5307"/><qTerm  idx="-1"  idxOne="2"  idxTwo="19"  coef=".8639"/><qTerm  idx="-1"  idxOne="3"  idxTwo="4"  coef=".9249"/><qTerm  idx="-1"  idxOne="3"  idxTwo="5"  coef=".5844"/><qTerm  idx="-1"  idxOne="3"  idxTwo="6"  coef="-.3302"/><qTerm  idx="-1"  idxOne="3"  idxTwo="8"  coef="-.8971"/><qTerm  idx="-1"  idxOne="3"  idxTwo="9"  coef=".9343"/><qTerm  idx="-1"  idxOne="3"  idxTwo="11"  coef="-.4812"/><qTerm  idx="-1"  idxOne="3"  idxTwo="14"  coef="-2.24e-2"/><qTerm  idx="-1"  idxOne="3"  idxTwo="15"  coef="-3.81e-2"/><qTerm  idx="-1"  idxOne="3"  idxTwo="19"  coef="-.6702"/><qTerm  idx="-1"  idxOne="4"  idxTwo="6"  coef="7.65e-2"/><qTerm  idx="-1"  idxOne="4"  idxTwo="8"  coef="-.5192"/><qTerm  idx="-1"  idxOne="4"  idxTwo="13"  coef=".15"/><qTerm  idx="-1"  idxOne="4"  idxTwo="16"  coef=".7511"/><qTerm  idx="-1"  idxOne="4"  idxTwo="17"  coef=".2959"/><qTerm  idx="-1"  idxOne="5"  idxTwo="6"  coef=".6925"/><qTerm  idx="-1"  idxOne="5"  idxTwo="7"  coef="-.7939"/><qTerm  idx="-1"  idxOne="5"  idxTwo="10"  coef="-.4419"/><qTerm  idx="-1"  idxOne="5"  idxTwo="12"  coef="-.4714"/><qTerm  idx="-1"  idxOne="5"  idxTwo="13"  coef="1.46e-2"/><qTerm  idx="-1"  idxOne="5"  idxTwo="16"  coef=".9626"/><qTerm  idx="-1"  idxOne="5"  idxTwo="17"  coef="5.41e-2"/><qTerm  idx="-1"  idxOne="5"  idxTwo="18"  coef="-.7318"/><qTerm  idx="-1"  idxOne="6"  idxTwo="6"  coef="-.6666"/><qTerm  idx="-1"  idxOne="6"  idxTwo="8"  coef=".6844"/><qTerm  idx="-1"  idxOne="6"  idxTwo="9"  coef=".2667"/><qTerm  idx="-1"  idxOne="6"  idxTwo="11"  coef=".9428"/><qTerm  idx="-1"  idxOne="6"  idxTwo="14"  coef="-.8373"/><qTerm  idx="-1"  idxOne="6"  idxTwo="15"  coef=".1923"/><qTerm  idx="-1"  idxOne="6"  idxTwo="16"  coef=".9925"/><qTerm  idx="-1"  idxOne="6"  idxTwo="19"  coef="-.9806"/><qTerm  idx="-1"  idxOne="7"  idxTwo="7"  coef="-.9013"/><qTerm  idx="-1"  idxOne="7"  idxTwo="11"  coef="-.7989"/><qTerm  idx="-1"  idxOne="7"  idxTwo="13"  coef=".959"/><qTerm  idx="-1"  idxOne="7"  idxTwo="14"  coef=".6824"/><qTerm  idx="-1"  idxOne="7"  idxTwo="15"  coef="-9.39e-2"/><qTerm  idx="-1"  idxOne="7"  idxTwo="17"  coef=".9649"/><qTerm  idx="-1"  idxOne="7"  idxTwo="19"  coef=".887"/><qTerm  idx="-1"  idxOne="8"  idxTwo="8"  coef=".1799"/><qTerm  idx="-1"  idxOne="8"  idxTwo="9"  coef="-.3306"/><qTerm  idx="-1"  idxOne="8"  idxTwo="11"  coef=".3269"/><qTerm  idx="-1"  idxOne="8"  idxTwo="13"  coef=".5563"/><qTerm  idx="-1"  idxOne="8"  idxTwo="14"  coef="4.27e-2"/><qTerm  idx="-1"  idxOne="9"  idxTwo="9"  coef="-.5169"/><qTerm  idx="-1"  idxOne="9"  idxTwo="10"  coef="-.1694"/><qTerm  idx="-1"  idxOne="9"  idxTwo="12"  coef="-.8772"/><qTerm  idx="-1"  idxOne="9"  idxTwo="14"  coef="-.6835"/><qTerm  idx="-1"  idxOne="9"  idxTwo="16"  coef="3.61e-2"/><qTerm  idx="-1"  idxOne="9"  idxTwo="19"  coef="-.4938"/><qTerm  idx="-1"  idxOne="10"  idxTwo="13"  coef="-8.24e-2"/><qTerm  idx="-1"  idxOne="10"  idxTwo="14"  coef="-.803"/><qTerm  idx="-1"  idxOne="10"  idxTwo="15"  coef="-.1227"/><qTerm  idx="-1"  idxOne="10"  idxTwo="16"  coef=".3447"/><qTerm  idx="-1"  idxOne="10"  idxTwo="17"  coef="-.5165"/><qTerm  idx="-1"  idxOne="10"  idxTwo="18"  coef=".8204"/><qTerm  idx="-1"  idxOne="10"  idxTwo="19"  coef="-4.19e-2"/><qTerm  idx="-1"  idxOne="11"  idxTwo="11"  coef=".7291"/><qTerm  idx="-1"  idxOne="11"  idxTwo="13"  coef=".1793"/><qTerm  idx="-1"  idxOne="11"  idxTwo="14"  coef="-.2906"/><qTerm  idx="-1"  idxOne="11"  idxTwo="15"  coef="-.4859"/><qTerm  idx="-1"  idxOne="11"  idxTwo="17"  coef=".7745"/><qTerm  idx="-1"  idxOne="11"  idxTwo="19"  coef=".5955"/><qTerm  idx="-1"  idxOne="12"  idxTwo="14"  coef="-.5433"/><qTerm  idx="-1"  idxOne="12"  idxTwo="18"  coef="9.63e-2"/><qTerm  idx="-1"  idxOne="12"  idxTwo="19"  coef=".9131"/><qTerm  idx="-1"  idxOne="13"  idxTwo="13"  coef="-.9212"/><qTerm  idx="-1"  idxOne="13"  idxTwo="14"  coef="-.5989"/><qTerm  idx="-1"  idxOne="13"  idxTwo="15"  coef=".3632"/><qTerm  idx="-1"  idxOne="13"  idxTwo="18"  coef=".7655"/><qTerm  idx="-1"  idxOne="14"  idxTwo="14"  coef="-.2558"/><qTerm  idx="-1"  idxOne="14"  idxTwo="15"  coef="-.3053"/><qTerm  idx="-1"  idxOne="14"  idxTwo="17"  coef=".1917"/><qTerm  idx="-1"  idxOne="15"  idxTwo="15"  coef="5.78e-2"/><qTerm  idx="-1"  idxOne="15"  idxTwo="17"  coef=".5697"/><qTerm  idx="-1"  idxOne="15"  idxTwo="18"  coef=".8762"/><qTerm  idx="-1"  idxOne="15"  idxTwo="19"  coef="-.1523"/><qTerm  idx="-1"  idxOne="16"  idxTwo="19"  coef="-.8181"/><qTerm  idx="-1"  idxOne="17"  idxTwo="17"  coef="4.12e-2"/><qTerm  idx="-1"  idxOne="18"  idxTwo="19"  coef="-.3223"/><qTerm  idx="-1"  idxOne="19"  idxTwo="19"  coef=".8437"/><qTerm  idx="0"  idxOne="0"  idxTwo="1"  coef="-.506"/><qTerm  idx="0"  idxOne="0"  idxTwo="2"  coef="-.2771"/><qTerm  idx="0"  idxOne="0"  idxTwo="3"  coef="-.5851"/><qTerm  idx="0"  idxOne="0"  idxTwo="4"  coef=".4033"/><qTerm  idx="0"  idxOne="0"  idxTwo="5"  coef="-.969"/><qTerm  idx="0"  idxOne="0"  idxTwo="6"  coef=".4623"/><qTerm  idx="0"  idxOne="0"  idxTwo="7"  coef=".8593"/><qTerm  idx="0"  idxOne="0"  idxTwo="8"  coef=".8792"/><qTerm  idx="0"  idxOne="0"  idxTwo="10"  coef=".7004"/><qTerm  idx="0"  idxOne="0"  idxTwo="12"  coef="-.1326"/><qTerm  idx="0"  idxOne="0"  idxTwo="13"  coef=".2992"/><qTerm  idx="0"  idxOne="0"  idxTwo="14"  coef="-.107"/><qTerm  idx="0"  idxOne="0"  idxTwo="16"  coef="-2.43e-2"/><qTerm  idx="0"  idxOne="0"  idxTwo="17"  coef="-.3026"/><qTerm  idx="0"  idxOne="0"  idxTwo="18"  coef=".4911"/><qTerm  idx="0"  idxOne="0"  idxTwo="19"  coef="8.88e-2"/><qTerm  idx="0"  idxOne="1"  idxTwo="4"  coef="-.2336"/><qTerm  idx="0"  idxOne="1"  idxTwo="5"  coef="-.5938"/><qTerm  idx="0"  idxOne="1"  idxTwo="9"  coef=".957"/><qTerm  idx="0"  idxOne="1"  idxTwo="10"  coef="-3.7e-3"/><qTerm  idx="0"  idxOne="1"  idxTwo="11"  coef="-.4063"/><qTerm  idx="0"  idxOne="1"  idxTwo="13"  coef=".6278"/><qTerm  idx="0"  idxOne="1"  idxTwo="14"  coef=".196"/><qTerm  idx="0"  idxOne="1"  idxTwo="15"  coef=".5782"/><qTerm  idx="0"  idxOne="1"  idxTwo="18"  coef="-.7207"/><qTerm  idx="0"  idxOne="1"  idxTwo="19"  coef=".2847"/><qTerm  idx="0"  idxOne="2"  idxTwo="2"  coef="-.1592"/><qTerm  idx="0"  idxOne="2"  idxTwo="4"  coef="-.2277"/><qTerm  idx="0"  idxOne="2"  idxTwo="7"  coef="5.12e-2"/><qTerm  idx="0"  idxOne="2"  idxTwo="8"  coef=".6212"/><qTerm  idx="0"  idxOne="2"  idxTwo="11"  coef="-.9616"/><qTerm  idx="0"  idxOne="2"  idxTwo="12"  coef="-.8938"/><qTerm  idx="0"  idxOne="2"  idxTwo="16"  coef="-.2326"/><qTerm  idx="0"  idxOne="2"  idxTwo="17"  coef=".102"/><qTerm  idx="0"  idxOne="2"  idxTwo="19"  coef=".9971"/><qTerm  idx="0"  idxOne="3"  idxTwo="4"  coef=".7663"/><qTerm  idx="0"  idxOne="3"  idxTwo="5"  coef="-.5352"/><qTerm  idx="0"  idxOne="3"  idxTwo="8"  coef=".5066"/><qTerm  idx="0"  idxOne="3"  idxTwo="9"  coef="-.387"/><qTerm  idx="0"  idxOne="3"  idxTwo="11"  coef="-.2135"/><qTerm  idx="0"  idxOne="3"  idxTwo="13"  coef="1.29e-2"/><qTerm  idx="0"  idxOne="3"  idxTwo="14"  coef="-.4558"/><qTerm  idx="0"  idxOne="3"  idxTwo="19"  coef="-.6481"/><qTerm  idx="0"  idxOne="4"  idxTwo="4"  coef="-.7218"/><qTerm  idx="0"  idxOne="4"  idxTwo="9"  coef="-.7735"/><qTerm  idx="0"  idxOne="4"  idxTwo="10"  coef=".5381"/><qTerm  idx="0"  idxOne="4"  idxTwo="11"  coef=".9237"/><qTerm  idx="0"  idxOne="4"  idxTwo="13"  coef="8.8e-2"/><qTerm  idx="0"  idxOne="4"  idxTwo="14"  coef="-.1725"/><qTerm  idx="0"  idxOne="4"  idxTwo="16"  coef="-.7814"/><qTerm  idx="0"  idxOne="4"  idxTwo="18"  coef="-.2254"/><qTerm  idx="0"  idxOne="5"  idxTwo="5"  coef=".3023"/><qTerm  idx="0"  idxOne="5"  idxTwo="6"  coef="-.9957"/><qTerm  idx="0"  idxOne="5"  idxTwo="8"  coef=".8797"/><qTerm  idx="0"  idxOne="5"  idxTwo="9"  coef=".3441"/><qTerm  idx="0"  idxOne="5"  idxTwo="11"  coef="-.6929"/><qTerm  idx="0"  idxOne="5"  idxTwo="12"  coef="-.6938"/><qTerm  idx="0"  idxOne="5"  idxTwo="15"  coef=".5092"/><qTerm  idx="0"  idxOne="5"  idxTwo="17"  coef=".5327"/><qTerm  idx="0"  idxOne="5"  idxTwo="19"  coef=".9047"/><qTerm  idx="0"  idxOne="6"  idxTwo="6"  coef=".5129"/><qTerm  idx="0"  idxOne="6"  idxTwo="7"  coef="-.2257"/><qTerm  idx="0"  idxOne="6"  idxTwo="9"  coef=".683"/><qTerm  idx="0"  idxOne="6"  idxTwo="12"  coef=".9313"/><qTerm  idx="0"  idxOne="6"  idxTwo="14"  coef=".7966"/><qTerm  idx="0"  idxOne="6"  idxTwo="15"  coef="-1.38e-2"/><qTerm  idx="0"  idxOne="6"  idxTwo="17"  coef="-.5195"/><qTerm  idx="0"  idxOne="6"  idxTwo="18"  coef="-.4867"/><qTerm  idx="0"  idxOne="7"  idxTwo="7"  coef=".2583"/><qTerm  idx="0"  idxOne="7"  idxTwo="11"  coef="-.3795"/><qTerm  idx="0"  idxOne="7"  idxTwo="12"  coef=".7816"/><qTerm  idx="0"  idxOne="7"  idxTwo="14"  coef=".5152"/><qTerm  idx="0"  idxOne="7"  idxTwo="15"  coef="-.1462"/><qTerm  idx="0"  idxOne="7"  idxTwo="16"  coef=".936"/><qTerm  idx="0"  idxOne="8"  idxTwo="8"  coef=".7522"/><qTerm  idx="0"  idxOne="8"  idxTwo="9"  coef=".6735"/><qTerm  idx="0"  idxOne="8"  idxTwo="13"  coef=".3848"/><qTerm  idx="0"  idxOne="8"  idxTwo="14"  coef="-.7218"/><qTerm  idx="0"  idxOne="8"  idxTwo="15"  coef="-4.23e-2"/><qTerm  idx="0"  idxOne="8"  idxTwo="18"  coef="-7.61e-2"/><qTerm  idx="0"  idxOne="8"  idxTwo="19"  coef=".2217"/><qTerm  idx="0"  idxOne="9"  idxTwo="10"  coef="-.9153"/><qTerm  idx="0"  idxOne="9"  idxTwo="12"  coef="-.6715"/><qTerm  idx="0"  idxOne="9"  idxTwo="16"  coef="-.3961"/><qTerm  idx="0"  idxOne="9"  idxTwo="19"  coef="-.8626"/><qTerm  idx="0"  idxOne="10"  idxTwo="10"  coef="-4.04e-2"/><qTerm  idx="0"  idxOne="10"  idxTwo="12"  coef="-.3617"/><qTerm  idx="0"  idxOne="10"  idxTwo="17"  coef="-.1537"/><qTerm  idx="0"  idxOne="11"  idxTwo="11"  coef=".8246"/><qTerm  idx="0"  idxOne="11"  idxTwo="15"  coef="-.1935"/><qTerm  idx="0"  idxOne="11"  idxTwo="17"  coef="-.2477"/><qTerm  idx="0"  idxOne="11"  idxTwo="19"  coef="-.7696"/><qTerm  idx="0"  idxOne="12"  idxTwo="12"  coef=".9909"/><qTerm  idx="0"  idxOne="12"  idxTwo="14"  coef="7.48e-2"/><qTerm  idx="0"  idxOne="12"  idxTwo="17"  coef="-.8779"/><qTerm  idx="0"  idxOne="12"  idxTwo="19"  coef="-.8327"/><qTerm  idx="0"  idxOne="13"  idxTwo="13"  coef=".7868"/><qTerm  idx="0"  idxOne="13"  idxTwo="14"  coef=".1163"/><qTerm  idx="0"  idxOne="13"  idxTwo="17"  coef="-.942"/><qTerm  idx="0"  idxOne="13"  idxTwo="18"  coef="-.6458"/><qTerm  idx="0"  idxOne="13"  idxTwo="19"  coef="-.8999"/><qTerm  idx="0"  idxOne="14"  idxTwo="14"  coef=".4182"/><qTerm  idx="0"  idxOne="14"  idxTwo="15"  coef=".2392"/><qTerm  idx="0"  idxOne="14"  idxTwo="17"  coef=".5241"/><qTerm  idx="0"  idxOne="15"  idxTwo="15"  coef="-.2673"/><qTerm  idx="0"  idxOne="15"  idxTwo="16"  coef=".5598"/><qTerm  idx="0"  idxOne="15"  idxTwo="18"  coef="3.93e-2"/><qTerm  idx="0"  idxOne="16"  idxTwo="16"  coef="-.4651"/><qTerm  idx="0"  idxOne="17"  idxTwo="17"  coef="-.4112"/><qTerm  idx="0"  idxOne="18"  idxTwo="19"  coef=".554"/><qTerm  idx="1"  idxOne="0"  idxTwo="0"  coef="-.6051"/><qTerm  idx="1"  idxOne="0"  idxTwo="4"  coef=".4815"/><qTerm  idx="1"  idxOne="0"  idxTwo="5"  coef=".3643"/><qTerm  idx="1"  idxOne="0"  idxTwo="6"  coef=".963"/><qTerm  idx="1"  idxOne="0"  idxTwo="8"  coef="-2.17e-2"/><qTerm  idx="1"  idxOne="0"  idxTwo="9"  coef=".3736"/><qTerm  idx="1"  idxOne="0"  idxTwo="10"  coef="-.1637"/><qTerm  idx="1"  idxOne="0"  idxTwo="11"  coef=".3246"/><qTerm  idx="1"  idxOne="0"  idxTwo="12"  coef=".8406"/><qTerm  idx="1"  idxOne="0"  idxTwo="14"  coef="-.4054"/><qTerm  idx="1"  idxOne="0"  idxTwo="15"  coef="-.1194"/><qTerm  idx="1"  idxOne="0"  idxTwo="16"  coef="-.6792"/><qTerm  idx="1"  idxOne="0"  idxTwo="18"  coef="-1.79e-2"/><qTerm  idx="1"  idxOne="0"  idxTwo="19"  coef=".5678"/><qTerm  idx="1"  idxOne="1"  idxTwo="1"  coef="-.6136"/><qTerm  idx="1"  idxOne="1"  idxTwo="2"  coef="-1.13e-2"/><qTerm  idx="1"  idxOne="1"  idxTwo="3"  coef="-.7408"/><qTerm  idx="1"  idxOne="1"  idxTwo="5"  coef=".4983"/><qTerm  idx="1"  idxOne="1"  idxTwo="13"  coef=".7166"/><qTerm  idx="1"  idxOne="1"  idxTwo="15"  coef=".7196"/><qTerm  idx="1"  idxOne="1"  idxTwo="17"  coef=".8041"/><qTerm  idx="1"  idxOne="2"  idxTwo="2"  coef="-.417"/><qTerm  idx="1"  idxOne="2"  idxTwo="3"  coef="-.4665"/><qTerm  idx="1"  idxOne="2"  idxTwo="5"  coef="-.9472"/><qTerm  idx="1"  idxOne="2"  idxTwo="6"  coef=".3186"/><qTerm  idx="1"  idxOne="2"  idxTwo="8"  coef="8.e-4"/><qTerm  idx="1"  idxOne="2"  idxTwo="10"  coef=".4112"/><qTerm  idx="1"  idxOne="2"  idxTwo="11"  coef="-.549"/><qTerm  idx="1"  idxOne="2"  idxTwo="17"  coef=".714"/><qTerm  idx="1"  idxOne="2"  idxTwo="19"  coef=".3726"/><qTerm  idx="1"  idxOne="3"  idxTwo="3"  coef=".2059"/><qTerm  idx="1"  idxOne="3"  idxTwo="5"  coef=".3263"/><qTerm  idx="1"  idxOne="3"  idxTwo="6"  coef="6.64e-2"/><qTerm  idx="1"  idxOne="3"  idxTwo="9"  coef="-.3905"/><qTerm  idx="1"  idxOne="3"  idxTwo="11"  coef="-.396"/><qTerm  idx="1"  idxOne="3"  idxTwo="12"  coef=".2489"/><qTerm  idx="1"  idxOne="4"  idxTwo="4"  coef="-.3591"/><qTerm  idx="1"  idxOne="4"  idxTwo="5"  coef=".8875"/><qTerm  idx="1"  idxOne="4"  idxTwo="6"  coef="-.1074"/><qTerm  idx="1"  idxOne="4"  idxTwo="7"  coef=".3386"/><qTerm  idx="1"  idxOne="4"  idxTwo="9"  coef=".1374"/><qTerm  idx="1"  idxOne="4"  idxTwo="11"  coef="2.61e-2"/><qTerm  idx="1"  idxOne="4"  idxTwo="12"  coef="-.6731"/><qTerm  idx="1"  idxOne="4"  idxTwo="13"  coef=".2712"/><qTerm  idx="1"  idxOne="4"  idxTwo="15"  coef=".8375"/><qTerm  idx="1"  idxOne="4"  idxTwo="18"  coef=".7226"/><qTerm  idx="1"  idxOne="4"  idxTwo="19"  coef="-.6796"/><qTerm  idx="1"  idxOne="5"  idxTwo="9"  coef="5.95e-2"/><qTerm  idx="1"  idxOne="5"  idxTwo="11"  coef="-.26"/><qTerm  idx="1"  idxOne="5"  idxTwo="12"  coef="-.3089"/><qTerm  idx="1"  idxOne="5"  idxTwo="15"  coef=".9926"/><qTerm  idx="1"  idxOne="5"  idxTwo="16"  coef="-.2871"/><qTerm  idx="1"  idxOne="5"  idxTwo="19"  coef="-.9585"/><qTerm  idx="1"  idxOne="6"  idxTwo="8"  coef=".1679"/><qTerm  idx="1"  idxOne="6"  idxTwo="10"  coef=".3712"/><qTerm  idx="1"  idxOne="6"  idxTwo="12"  coef="-.6788"/><qTerm  idx="1"  idxOne="6"  idxTwo="14"  coef="-.5049"/><qTerm  idx="1"  idxOne="6"  idxTwo="17"  coef=".6338"/><qTerm  idx="1"  idxOne="6"  idxTwo="19"  coef="-.6546"/><qTerm  idx="1"  idxOne="7"  idxTwo="7"  coef=".7588"/><qTerm  idx="1"  idxOne="7"  idxTwo="8"  coef="-.9789"/><qTerm  idx="1"  idxOne="7"  idxTwo="11"  coef="-.1334"/><qTerm  idx="1"  idxOne="7"  idxTwo="17"  coef="-.1394"/><qTerm  idx="1"  idxOne="7"  idxTwo="18"  coef=".2722"/><qTerm  idx="1"  idxOne="7"  idxTwo="19"  coef="-.615"/><qTerm  idx="1"  idxOne="8"  idxTwo="8"  coef=".3584"/><qTerm  idx="1"  idxOne="8"  idxTwo="9"  coef=".4657"/><qTerm  idx="1"  idxOne="8"  idxTwo="11"  coef=".6566"/><qTerm  idx="1"  idxOne="8"  idxTwo="13"  coef="-.6826"/><qTerm  idx="1"  idxOne="8"  idxTwo="16"  coef=".1999"/><qTerm  idx="1"  idxOne="8"  idxTwo="19"  coef="-2.53e-2"/><qTerm  idx="1"  idxOne="9"  idxTwo="11"  coef="-.1107"/><qTerm  idx="1"  idxOne="9"  idxTwo="12"  coef="-.8714"/><qTerm  idx="1"  idxOne="9"  idxTwo="13"  coef="-1.02e-2"/><qTerm  idx="1"  idxOne="9"  idxTwo="14"  coef=".4648"/><qTerm  idx="1"  idxOne="9"  idxTwo="15"  coef="-9.05e-2"/><qTerm  idx="1"  idxOne="9"  idxTwo="16"  coef=".5086"/><qTerm  idx="1"  idxOne="9"  idxTwo="17"  coef="-.2488"/><qTerm  idx="1"  idxOne="9"  idxTwo="18"  coef=".4272"/><qTerm  idx="1"  idxOne="10"  idxTwo="12"  coef=".5776"/><qTerm  idx="1"  idxOne="10"  idxTwo="13"  coef=".2769"/><qTerm  idx="1"  idxOne="10"  idxTwo="14"  coef="-6.3e-2"/><qTerm  idx="1"  idxOne="10"  idxTwo="17"  coef="-.7313"/><qTerm  idx="1"  idxOne="10"  idxTwo="19"  coef=".7715"/><qTerm  idx="1"  idxOne="11"  idxTwo="12"  coef=".1597"/><qTerm  idx="1"  idxOne="11"  idxTwo="13"  coef=".7531"/><qTerm  idx="1"  idxOne="11"  idxTwo="14"  coef="-.5785"/><qTerm  idx="1"  idxOne="11"  idxTwo="16"  coef="-.8593"/><qTerm  idx="1"  idxOne="11"  idxTwo="17"  coef="-.4655"/><qTerm  idx="1"  idxOne="11"  idxTwo="19"  coef="6.44e-2"/><qTerm  idx="1"  idxOne="12"  idxTwo="14"  coef="-.906"/><qTerm  idx="1"  idxOne="12"  idxTwo="16"  coef="-.6081"/><qTerm  idx="1"  idxOne="12"  idxTwo="17"  coef=".4693"/><qTerm  idx="1"  idxOne="12"  idxTwo="18"  coef="-.1253"/><qTerm  idx="1"  idxOne="12"  idxTwo="19"  coef="-.4972"/><qTerm  idx="1"  idxOne="13"  idxTwo="13"  coef=".5691"/><qTerm  idx="1"  idxOne="13"  idxTwo="19"  coef=".5647"/><qTerm  idx="1"  idxOne="14"  idxTwo="14"  coef=".2197"/><qTerm  idx="1"  idxOne="14"  idxTwo="15"  coef="-.4624"/><qTerm  idx="1"  idxOne="14"  idxTwo="17"  coef=".1284"/><qTerm  idx="1"  idxOne="14"  idxTwo="18"  coef="-.5544"/><qTerm  idx="1"  idxOne="15"  idxTwo="15"  coef="-.7919"/><qTerm  idx="1"  idxOne="15"  idxTwo="18"  coef=".4457"/><qTerm  idx="1"  idxOne="15"  idxTwo="19"  coef="-.5018"/><qTerm  idx="1"  idxOne="16"  idxTwo="16"  coef="-.1074"/><qTerm  idx="1"  idxOne="16"  idxTwo="17"  coef=".3765"/><qTerm  idx="1"  idxOne="16"  idxTwo="18"  coef="-.5653"/><qTerm  idx="1"  idxOne="17"  idxTwo="17"  coef=".6294"/><qTerm  idx="1"  idxOne="17"  idxTwo="18"  coef="-.2739"/><qTerm  idx="1"  idxOne="18"  idxTwo="19"  coef="-.4372"/><qTerm  idx="2"  idxOne="0"  idxTwo="1"  coef="3.76e-2"/><qTerm  idx="2"  idxOne="0"  idxTwo="5"  coef="-.7834"/><qTerm  idx="2"  idxOne="0"  idxTwo="7"  coef="-.7464"/><qTerm  idx="2"  idxOne="0"  idxTwo="8"  coef="-.7768"/><qTerm  idx="2"  idxOne="0"  idxTwo="9"  coef=".9599"/><qTerm  idx="2"  idxOne="0"  idxTwo="11"  coef="-.5774"/><qTerm  idx="2"  idxOne="0"  idxTwo="13"  coef="-.717"/><qTerm  idx="2"  idxOne="0"  idxTwo="15"  coef=".2833"/><qTerm  idx="2"  idxOne="0"  idxTwo="16"  coef=".4515"/><qTerm  idx="2"  idxOne="0"  idxTwo="17"  coef=".1883"/><qTerm  idx="2"  idxOne="0"  idxTwo="18"  coef="-.4221"/><qTerm  idx="2"  idxOne="0"  idxTwo="19"  coef="-.5294"/><qTerm  idx="2"  idxOne="1"  idxTwo="4"  coef="-.1498"/><qTerm  idx="2"  idxOne="1"  idxTwo="9"  coef="-.9796"/><qTerm  idx="2"  idxOne="1"  idxTwo="10"  coef=".5184"/><qTerm  idx="2"  idxOne="1"  idxTwo="11"  coef="-.7527"/><qTerm  idx="2"  idxOne="1"  idxTwo="13"  coef="-.2411"/><qTerm  idx="2"  idxOne="1"  idxTwo="15"  coef="-.2212"/><qTerm  idx="2"  idxOne="1"  idxTwo="17"  coef="-.3065"/><qTerm  idx="2"  idxOne="1"  idxTwo="18"  coef=".1302"/><qTerm  idx="2"  idxOne="1"  idxTwo="19"  coef=".5883"/><qTerm  idx="2"  idxOne="2"  idxTwo="2"  coef=".432"/><qTerm  idx="2"  idxOne="2"  idxTwo="6"  coef=".2389"/><qTerm  idx="2"  idxOne="2"  idxTwo="9"  coef="-.7093"/><qTerm  idx="2"  idxOne="2"  idxTwo="10"  coef="-.9992"/><qTerm  idx="2"  idxOne="2"  idxTwo="12"  coef=".8763"/><qTerm  idx="2"  idxOne="2"  idxTwo="13"  coef=".7087"/><qTerm  idx="2"  idxOne="2"  idxTwo="17"  coef="-6.49e-2"/><qTerm  idx="2"  idxOne="3"  idxTwo="3"  coef=".6267"/><qTerm  idx="2"  idxOne="3"  idxTwo="7"  coef="-.768"/><qTerm  idx="2"  idxOne="3"  idxTwo="10"  coef=".3104"/><qTerm  idx="2"  idxOne="3"  idxTwo="11"  coef=".2314"/><qTerm  idx="2"  idxOne="3"  idxTwo="12"  coef="-6.97e-2"/><qTerm  idx="2"  idxOne="3"  idxTwo="14"  coef="-.4129"/><qTerm  idx="2"  idxOne="3"  idxTwo="16"  coef="-.1365"/><qTerm  idx="2"  idxOne="3"  idxTwo="17"  coef="-.8296"/><qTerm  idx="2"  idxOne="3"  idxTwo="18"  coef="-.2968"/><qTerm  idx="2"  idxOne="3"  idxTwo="19"  coef="-.862"/><qTerm  idx="2"  idxOne="4"  idxTwo="4"  coef="-.4875"/><qTerm  idx="2"  idxOne="4"  idxTwo="5"  coef="-.1104"/><qTerm  idx="2"  idxOne="4"  idxTwo="7"  coef="-.6234"/><qTerm  idx="2"  idxOne="4"  idxTwo="8"  coef="9.48e-2"/><qTerm  idx="2"  idxOne="4"  idxTwo="10"  coef="-.5229"/><qTerm  idx="2"  idxOne="4"  idxTwo="12"  coef="-.786"/><qTerm  idx="2"  idxOne="4"  idxTwo="16"  coef=".3301"/><qTerm  idx="2"  idxOne="4"  idxTwo="18"  coef=".1155"/><qTerm  idx="2"  idxOne="4"  idxTwo="19"  coef="-.9235"/><qTerm  idx="2"  idxOne="5"  idxTwo="5"  coef="-.9514"/><qTerm  idx="2"  idxOne="5"  idxTwo="8"  coef="-.9054"/><qTerm  idx="2"  idxOne="5"  idxTwo="9"  coef=".4058"/><qTerm  idx="2"  idxOne="5"  idxTwo="14"  coef="-.5633"/><qTerm  idx="2"  idxOne="5"  idxTwo="16"  coef="-9.91e-2"/><qTerm  idx="2"  idxOne="5"  idxTwo="17"  coef="-2.1e-3"/><qTerm  idx="2"  idxOne="5"  idxTwo="18"  coef="-.2952"/><qTerm  idx="2"  idxOne="6"  idxTwo="6"  coef="-.5508"/><qTerm  idx="2"  idxOne="6"  idxTwo="10"  coef="-.1529"/><qTerm  idx="2"  idxOne="6"  idxTwo="11"  coef="5.26e-2"/><qTerm  idx="2"  idxOne="6"  idxTwo="12"  coef=".9086"/><qTerm  idx="2"  idxOne="6"  idxTwo="14"  coef=".5866"/><qTerm  idx="2"  idxOne="6"  idxTwo="15"  coef="-.8777"/><qTerm  idx="2"  idxOne="6"  idxTwo="19"  coef="1.81e-2"/><qTerm  idx="2"  idxOne="7"  idxTwo="7"  coef=".2463"/><qTerm  idx="2"  idxOne="7"  idxTwo="8"  coef=".1697"/><qTerm  idx="2"  idxOne="7"  idxTwo="10"  coef="-.9148"/><qTerm  idx="2"  idxOne="7"  idxTwo="14"  coef=".4976"/><qTerm  idx="2"  idxOne="7"  idxTwo="15"  coef="-.7257"/><qTerm  idx="2"  idxOne="7"  idxTwo="16"  coef="-.5447"/><qTerm  idx="2"  idxOne="7"  idxTwo="17"  coef="-.3333"/><qTerm  idx="2"  idxOne="7"  idxTwo="18"  coef=".7602"/><qTerm  idx="2"  idxOne="7"  idxTwo="19"  coef="-.6432"/><qTerm  idx="2"  idxOne="8"  idxTwo="9"  coef=".4335"/><qTerm  idx="2"  idxOne="8"  idxTwo="11"  coef=".6657"/><qTerm  idx="2"  idxOne="8"  idxTwo="13"  coef="-.3522"/><qTerm  idx="2"  idxOne="8"  idxTwo="14"  coef="-.3207"/><qTerm  idx="2"  idxOne="8"  idxTwo="19"  coef="-.9375"/><qTerm  idx="2"  idxOne="9"  idxTwo="9"  coef="-.2883"/><qTerm  idx="2"  idxOne="9"  idxTwo="10"  coef="-.313"/><qTerm  idx="2"  idxOne="9"  idxTwo="13"  coef="-.8875"/><qTerm  idx="2"  idxOne="9"  idxTwo="14"  coef="-.4723"/><qTerm  idx="2"  idxOne="9"  idxTwo="17"  coef=".6583"/><qTerm  idx="2"  idxOne="9"  idxTwo="18"  coef="-.605"/><qTerm  idx="2"  idxOne="9"  idxTwo="19"  coef=".464"/><qTerm  idx="2"  idxOne="10"  idxTwo="10"  coef="-.4779"/><qTerm  idx="2"  idxOne="10"  idxTwo="12"  coef=".142"/><qTerm  idx="2"  idxOne="10"  idxTwo="13"  coef="-.7121"/><qTerm  idx="2"  idxOne="10"  idxTwo="14"  coef=".8174"/><qTerm  idx="2"  idxOne="10"  idxTwo="15"  coef=".6158"/><qTerm  idx="2"  idxOne="10"  idxTwo="16"  coef=".8037"/><qTerm  idx="2"  idxOne="10"  idxTwo="19"  coef="-1.99e-2"/><qTerm  idx="2"  idxOne="11"  idxTwo="18"  coef=".6277"/><qTerm  idx="2"  idxOne="11"  idxTwo="19"  coef=".3422"/><qTerm  idx="2"  idxOne="12"  idxTwo="12"  coef="1.11e-2"/><qTerm  idx="2"  idxOne="12"  idxTwo="13"  coef=".5486"/><qTerm  idx="2"  idxOne="12"  idxTwo="14"  coef="-9.31e-2"/><qTerm  idx="2"  idxOne="12"  idxTwo="17"  coef=".8128"/><qTerm  idx="2"  idxOne="12"  idxTwo="18"  coef="-3.44e-2"/><qTerm  idx="2"  idxOne="12"  idxTwo="19"  coef=".4717"/><qTerm  idx="2"  idxOne="13"  idxTwo="17"  coef="-.9813"/><qTerm  idx="2"  idxOne="13"  idxTwo="19"  coef=".7195"/><qTerm  idx="2"  idxOne="14"  idxTwo="17"  coef=".4506"/><qTerm  idx="2"  idxOne="14"  idxTwo="18"  coef=".9142"/><qTerm  idx="2"  idxOne="14"  idxTwo="19"  coef="-.5671"/><qTerm  idx="2"  idxOne="15"  idxTwo="18"  coef="-1"/><qTerm  idx="2"  idxOne="16"  idxTwo="16"  coef=".4309"/><qTerm  idx="2"  idxOne="16"  idxTwo="17"  coef="-.7718"/><qTerm  idx="2"  idxOne="16"  idxTwo="19"  coef=".2419"/><qTerm  idx="2"  idxOne="17"  idxTwo="17"  coef=".5704"/><qTerm  idx="2"  idxOne="17"  idxTwo="18"  coef="-.1569"/><qTerm  idx="2"  idxOne="17"  idxTwo="19"  coef=".8264"/><qTerm  idx="2"  idxOne="19"  idxTwo="19"  coef="-.6979"/><qTerm  idx="3"  idxOne="0"  idxTwo="0"  coef="-.2234"/><qTerm  idx="3"  idxOne="0"  idxTwo="2"  coef="-.5767"/><qTerm  idx="3"  idxOne="0"  idxTwo="3"  coef=".9638"/><qTerm  idx="3"  idxOne="0"  idxTwo="5"  coef="-.8306"/><qTerm  idx="3"  idxOne="0"  idxTwo="6"  coef="-.4428"/><qTerm  idx="3"  idxOne="0"  idxTwo="7"  coef=".7551"/><qTerm  idx="3"  idxOne="0"  idxTwo="9"  coef=".1343"/><qTerm  idx="3"  idxOne="0"  idxTwo="10"  coef="-1.74e-2"/><qTerm  idx="3"  idxOne="0"  idxTwo="11"  coef=".1535"/><qTerm  idx="3"  idxOne="0"  idxTwo="12"  coef=".4655"/><qTerm  idx="3"  idxOne="0"  idxTwo="13"  coef=".6368"/><qTerm  idx="3"  idxOne="0"  idxTwo="14"  coef="-.3349"/><qTerm  idx="3"  idxOne="0"  idxTwo="15"  coef="-.3947"/><qTerm  idx="3"  idxOne="0"  idxTwo="16"  coef=".4457"/><qTerm  idx="3"  idxOne="0"  idxTwo="19"  coef="-.7811"/><qTerm  idx="3"  idxOne="1"  idxTwo="1"  coef="5.61e-2"/><qTerm  idx="3"  idxOne="1"  idxTwo="3"  coef=".9949"/><qTerm  idx="3"  idxOne="1"  idxTwo="4"  coef="1.75e-2"/><qTerm  idx="3"  idxOne="1"  idxTwo="5"  coef=".3907"/><qTerm  idx="3"  idxOne="1"  idxTwo="6"  coef=".8208"/><qTerm  idx="3"  idxOne="1"  idxTwo="11"  coef="-.4831"/><qTerm  idx="3"  idxOne="1"  idxTwo="14"  coef="9.98e-2"/><qTerm  idx="3"  idxOne="1"  idxTwo="16"  coef=".9517"/><qTerm  idx="3"  idxOne="1"  idxTwo="18"  coef=".6618"/><qTerm  idx="3"  idxOne="1"  idxTwo="19"  coef="-.1377"/><qTerm  idx="3"  idxOne="2"  idxTwo="2"  coef="-5.34e-2"/><qTerm  idx="3"  idxOne="2"  idxTwo="4"  coef="-.1808"/><qTerm  idx="3"  idxOne="2"  idxTwo="5"  coef=".4959"/><qTerm  idx="3"  idxOne="2"  idxTwo="7"  coef=".8739"/><qTerm  idx="3"  idxOne="2"  idxTwo="11"  coef=".4761"/><qTerm  idx="3"  idxOne="2"  idxTwo="12"  coef="-.76"/><qTerm  idx="3"  idxOne="2"  idxTwo="17"  coef=".1344"/><qTerm  idx="3"  idxOne="2"  idxTwo="18"  coef=".4302"/><qTerm  idx="3"  idxOne="3"  idxTwo="3"  coef=".2268"/><qTerm  idx="3"  idxOne="3"  idxTwo="4"  coef="-.8581"/><qTerm  idx="3"  idxOne="3"  idxTwo="6"  coef="-.9698"/><qTerm  idx="3"  idxOne="3"  idxTwo="7"  coef="-.4175"/><qTerm  idx="3"  idxOne="3"  idxTwo="9"  coef="-.6777"/><qTerm  idx="3"  idxOne="3"  idxTwo="11"  coef="-.2106"/><qTerm  idx="3"  idxOne="3"  idxTwo="12"  coef="-.8518"/><qTerm  idx="3"  idxOne="3"  idxTwo="19"  coef="-.2044"/><qTerm  idx="3"  idxOne="4"  idxTwo="7"  coef="-.2839"/><qTerm  idx="3"  idxOne="4"  idxTwo="10"  coef="-.9479"/><qTerm  idx="3"  idxOne="4"  idxTwo="11"  coef=".7982"/><qTerm  idx="3"  idxOne="4"  idxTwo="13"  coef="-.6029"/><qTerm  idx="3"  idxOne="4"  idxTwo="14"  coef=".4451"/><qTerm  idx="3"  idxOne="4"  idxTwo="18"  coef="-.3462"/><qTerm  idx="3"  idxOne="4"  idxTwo="19"  coef="-.4838"/><qTerm  idx="3"  idxOne="5"  idxTwo="5"  coef="-.1554"/><qTerm  idx="3"  idxOne="5"  idxTwo="6"  coef=".6486"/><qTerm  idx="3"  idxOne="5"  idxTwo="13"  coef="-.2053"/><qTerm  idx="3"  idxOne="5"  idxTwo="15"  coef="-.2599"/><qTerm  idx="3"  idxOne="5"  idxTwo="19"  coef="-.5853"/><qTerm  idx="3"  idxOne="6"  idxTwo="6"  coef="-.3857"/><qTerm  idx="3"  idxOne="6"  idxTwo="7"  coef="-.526"/><qTerm  idx="3"  idxOne="6"  idxTwo="9"  coef=".5559"/><qTerm  idx="3"  idxOne="6"  idxTwo="10"  coef="-.1299"/><qTerm  idx="3"  idxOne="6"  idxTwo="12"  coef=".5735"/><qTerm  idx="3"  idxOne="6"  idxTwo="14"  coef="-.3121"/><qTerm  idx="3"  idxOne="6"  idxTwo="16"  coef="-.2527"/><qTerm  idx="3"  idxOne="6"  idxTwo="18"  coef=".6901"/><qTerm  idx="3"  idxOne="6"  idxTwo="19"  coef="-.224"/><qTerm  idx="3"  idxOne="7"  idxTwo="7"  coef="-.504"/><qTerm  idx="3"  idxOne="7"  idxTwo="11"  coef="-.3558"/><qTerm  idx="3"  idxOne="7"  idxTwo="13"  coef=".692"/><qTerm  idx="3"  idxOne="7"  idxTwo="14"  coef=".2166"/><qTerm  idx="3"  idxOne="7"  idxTwo="16"  coef="-.3207"/><qTerm  idx="3"  idxOne="7"  idxTwo="17"  coef="-.7537"/><qTerm  idx="3"  idxOne="7"  idxTwo="19"  coef=".3029"/><qTerm  idx="3"  idxOne="8"  idxTwo="8"  coef="-.9003"/><qTerm  idx="3"  idxOne="8"  idxTwo="10"  coef="-.5601"/><qTerm  idx="3"  idxOne="8"  idxTwo="11"  coef=".1253"/><qTerm  idx="3"  idxOne="8"  idxTwo="13"  coef=".3511"/><qTerm  idx="3"  idxOne="8"  idxTwo="14"  coef=".4034"/><qTerm  idx="3"  idxOne="9"  idxTwo="10"  coef=".5915"/><qTerm  idx="3"  idxOne="9"  idxTwo="16"  coef="-.9321"/><qTerm  idx="3"  idxOne="9"  idxTwo="17"  coef="-.7018"/><qTerm  idx="3"  idxOne="10"  idxTwo="10"  coef=".9676"/><qTerm  idx="3"  idxOne="10"  idxTwo="11"  coef="7.7e-3"/><qTerm  idx="3"  idxOne="10"  idxTwo="13"  coef=".6789"/><qTerm  idx="3"  idxOne="10"  idxTwo="14"  coef="-.9712"/><qTerm  idx="3"  idxOne="10"  idxTwo="17"  coef="-.1112"/><qTerm  idx="3"  idxOne="10"  idxTwo="18"  coef="-.7022"/><qTerm  idx="3"  idxOne="11"  idxTwo="11"  coef=".2821"/><qTerm  idx="3"  idxOne="11"  idxTwo="12"  coef="-.4521"/><qTerm  idx="3"  idxOne="11"  idxTwo="14"  coef=".3044"/><qTerm  idx="3"  idxOne="11"  idxTwo="16"  coef=".8173"/><qTerm  idx="3"  idxOne="11"  idxTwo="17"  coef="-.6102"/><qTerm  idx="3"  idxOne="11"  idxTwo="19"  coef=".4353"/><qTerm  idx="3"  idxOne="12"  idxTwo="12"  coef=".8494"/><qTerm  idx="3"  idxOne="12"  idxTwo="13"  coef="-1.41e-2"/><qTerm  idx="3"  idxOne="12"  idxTwo="16"  coef="-.2351"/><qTerm  idx="3"  idxOne="12"  idxTwo="17"  coef="-.5149"/><qTerm  idx="3"  idxOne="12"  idxTwo="18"  coef=".4171"/><qTerm  idx="3"  idxOne="12"  idxTwo="19"  coef="-.4851"/><qTerm  idx="3"  idxOne="13"  idxTwo="13"  coef=".2186"/><qTerm  idx="3"  idxOne="13"  idxTwo="14"  coef="-.5165"/><qTerm  idx="3"  idxOne="13"  idxTwo="19"  coef="-4.09e-2"/><qTerm  idx="3"  idxOne="14"  idxTwo="14"  coef="-6.84e-2"/><qTerm  idx="3"  idxOne="14"  idxTwo="16"  coef=".8067"/><qTerm  idx="3"  idxOne="14"  idxTwo="19"  coef="-.741"/><qTerm  idx="3"  idxOne="15"  idxTwo="15"  coef=".244"/><qTerm  idx="3"  idxOne="15"  idxTwo="16"  coef=".4082"/><qTerm  idx="3"  idxOne="15"  idxTwo="17"  coef="-.8271"/><qTerm  idx="3"  idxOne="15"  idxTwo="18"  coef="2.59e-2"/><qTerm  idx="3"  idxOne="15"  idxTwo="19"  coef=".5978"/><qTerm  idx="3"  idxOne="16"  idxTwo="16"  coef=".6645"/><qTerm  idx="3"  idxOne="16"  idxTwo="17"  coef="-.8019"/><qTerm  idx="3"  idxOne="17"  idxTwo="17"  coef=".4188"/><qTerm  idx="3"  idxOne="19"  idxTwo="19"  coef="-.9602"/></quadraticCoefficients></instanceData></osil>
